10 6 15 4 14 11 5 9 8 19 12 0 2 7 18 1 17 13 16 3  
10 6 15 4 14 11 5 9 8 19 12 0 18 17 13 16 7 1 2 3  
10 6 15 4 14 11 5 9 8 19 12 0 2 7 18 1 17 13 16 3  
10 6 15 4 14 11 5 9 8 19 12 17 18 13 16 0 1 7 2 3  
10 6 15 4 11 14 18 8 17 12 9 19 16 5 0 1 2 7 3 13  
10 6 15 4 14 11 5 9 8 19 12 17 18 13 16 0 7 2 3 1  
10 6 15 4 14 11 5 9 8 19 12 0 2 18 1 17 13 16 7 3  
10 6 18 11 14 4 8 15 17 12 9 19 16 5 0 1 2 7 3 13  
10 6 15 4 18 14 11 7 8 5 9 19 2 12 17 1 0 13 16 3  
10 6 15 4 18 11 14 7 8 17 12 9 19 5 0 1 2 13 16 3  
10 6 15 4 18 14 11 8 17 12 9 19 5 13 16 0 1 7 2 3  
10 6 15 4 18 14 11 7 8 17 12 9 19 16 5 0 13 2 3 1  
10 6 15 4 14 11 5 9 8 19 12 17 18 7 2 13 0 16 1 3  
10 6 15 4 14 11 5 9 8 19 12 17 1 0 2 18 13 16 7 3  
10 6 15 4 11 18 14 7 8 17 12 9 19 5 0 1 2 13 16 3  
10 6 15 4 18 14 11 12 17 8 5 9 19 1 7 2 0 13 16 3  
10 6 15 4 11 14 18 8 17 12 9 19 16 5 0 1 2 7 3 13  
10 6 15 4 18 14 11 7 8 17 12 9 19 5 2 1 0 13 16 3  
10 6 15 4 14 11 5 8 18 17 12 9 19 13 16 0 1 7 2 3  
10 6 15 4 18 11 14 7 8 17 12 9 19 5 0 1 13 2 16 3  
10 6 15 4 18 14 11 7 8 17 12 9 19 16 5 0 1 13 2 3  
4 10 6 18 11 15 0 1 7 9 12 17 2 19 5 3 14 13 16 8  
10 6 4 15 18 14 11 7 8 17 12 9 19 5 13 0 16 1 2 3  
10 6 15 4 18 14 11 7 8 17 12 9 19 5 13 0 1 2 16 3  
10 6 15 4 18 14 11 7 8 17 12 9 19 16 5 0 13 2 1 3  
10 6 15 4 18 14 11 7 8 17 12 9 19 16 5 0 1 2 3 13  
4 10 6 18 15 11 0 12 9 7 1 17 2 19 5 3 14 13 16 8  
10 6 15 4 11 18 14 7 8 0 12 9 19 5 1 17 2 13 16 3  
4 10 6 18 15 11 7 12 9 0 1 17 2 19 5 3 14 13 16 8  
10 6 15 4 18 14 11 7 8 17 12 9 19 16 5 0 1 2 13 3  
10 6 15 4 18 14 11 7 8 17 12 9 19 16 5 0 1 2 3 13  
10 6 15 4 14 11 5 9 8 19 0 12 18 17 1 2 7 13 16 3  
10 6 15 4 18 14 11 7 8 17 12 9 19 16 5 0 13 2 1 3  
10 6 15 4 11 18 14 7 8 17 12 5 9 19 1 0 13 2 16 3  
10 6 15 4 14 11 5 9 8 19 12 17 18 13 16 7 1 0 2 3  
10 6 15 4 11 14 7 18 8 17 12 9 19 0 1 13 16 5 2 3  
10 6 15 4 18 14 11 8 17 12 9 19 16 5 0 1 2 7 3 13  
10 6 15 4 18 14 11 7 8 17 12 9 19 16 5 2 0 1 3 13  
4 10 6 15 18 14 7 8 11 5 9 19 0 12 13 2 16 17 1 3  
10 6 15 4 14 11 5 9 8 19 0 12 2 17 18 13 16 1 7 3  
10 6 15 4 11 18 14 7 8 17 12 9 19 5 0 1 2 13 16 3  
10 6 15 4 14 11 5 8 18 17 12 9 19 13 16 0 1 7 2 3  
10 6 15 4 11 14 18 8 17 12 0 19 16 5 9 2 13 7 3 1  
10 6 15 4 18 14 11 7 8 17 12 9 19 16 5 2 13 0 1 3  
10 6 15 4 18 14 11 7 8 17 12 9 19 16 5 0 1 13 2 3  
